c SAT Generator for power-law distributed variable frequencies
c -g u -v 20 -c 91 -k 3 -p 2.750000 -b 3.200000 -f /home/schmidt/Devel/ni-kop-sat/data/ensemble/ruf20-91/ruf20-91-764 -u 1 -U 1 -s 3049404677
p cnf 20 91
-5 -13 15 0
-12 18 -19 0
5 14 -18 0
8 -18 19 0
-1 2 -5 0
6 -11 -12 0
-1 9 -16 0
-8 -17 18 0
-7 -9 -12 0
12 18 19 0
10 -18 19 0
5 12 18 0
-6 -12 15 0
-1 -3 -10 0
2 14 20 0
-10 12 -13 0
-8 10 13 0
1 7 -8 0
3 19 -20 0
-10 -17 -18 0
-4 5 17 0
2 8 15 0
-5 -6 16 0
-4 16 18 0
-7 -15 20 0
-16 17 -18 0
-4 6 -11 0
-1 8 -19 0
-2 -11 -12 0
-6 18 19 0
-3 13 -19 0
1 3 -11 0
-3 -6 -18 0
-9 -11 18 0
12 19 -20 0
-10 11 -13 0
1 2 7 0
-7 8 -13 0
6 -10 14 0
-10 -14 20 0
6 8 -20 0
3 12 16 0
9 -12 14 0
4 -17 19 0
4 12 -15 0
-8 -13 17 0
11 12 -15 0
1 12 14 0
-5 -10 -14 0
10 12 15 0
4 5 18 0
-3 4 13 0
-7 -12 -13 0
-7 10 -18 0
-2 -13 17 0
-11 -12 -15 0
-6 -15 18 0
-1 2 -17 0
1 -4 -16 0
-8 -11 -18 0
-6 10 14 0
4 -9 -15 0
12 14 -17 0
2 -6 19 0
5 -7 10 0
16 -18 -20 0
11 12 20 0
2 9 10 0
8 -18 -19 0
1 -2 9 0
-2 3 -4 0
-4 5 -7 0
-3 -6 15 0
-1 3 -6 0
10 -13 14 0
6 -10 -14 0
5 11 -16 0
2 7 13 0
-14 17 -19 0
6 8 9 0
2 5 -12 0
-9 11 -16 0
8 10 12 0
3 11 19 0
7 -8 -11 0
4 11 15 0
-8 -11 -14 0
1 11 -15 0
-3 5 -11 0
2 -11 -19 0
-7 14 -20 0
